
===== New CPLEX run =====
Instance: /home/yorig/tuner/mpils-tests/instances/miplib/easy/supportcase18.mps
Config: /scratch/yorig/mpils-results-grid-seconds-5-no-mip-start/easy/24proc/seed-1/9_supportcase18_seed-1_20260502_185710/iterated_local_search/run_1_worker_4/ils_config_4646249020595888442.prm
========================

Selected objective sense:  MINIMIZE
Selected objective  name:  OBJ
Selected RHS        name:  RHS1
Selected bound      name:  BND1
Version identifier: 22.1.2.0 | 2024-11-26 | 0edbb82fd
CPXPARAM_Threads                                 8
CPXPARAM_Parallel                                1
CPXPARAM_MIP_Cuts_Cliques                        2
CPXPARAM_MIP_Cuts_Implied                        1
CPXPARAM_MIP_Limits_GomoryCand                   800
CPXPARAM_MIP_Cuts_Gomory                         2
CPXPARAM_MIP_Cuts_PathCut                        -1
CPXPARAM_MIP_Cuts_MIRCut                         1
CPXPARAM_TimeLimit                               5
Tried aggregator 1 time.
Reduced MIP has 240 rows, 13410 columns, and 28920 nonzeros.
Reduced MIP has 13410 binaries, 0 generals, 0 SOSs, and 0 indicators.
Presolve time = 0.03 sec. (31.58 ticks)
Found incumbent of value 120.000000 after 0.06 sec. (75.08 ticks)
Tried aggregator 1 time.
Detecting symmetries...
Reduced MIP has 240 rows, 13410 columns, and 28920 nonzeros.
Reduced MIP has 13410 binaries, 0 generals, 0 SOSs, and 0 indicators.
Presolve time = 0.03 sec. (40.71 ticks)
Probing time = 0.01 sec. (5.64 ticks)
Clique table members: 4542.
MIP emphasis: balance optimality and feasibility.
MIP search method: dynamic search.
Parallel mode: deterministic, using up to 8 threads.
Root relaxation solution time = 0.02 sec. (27.39 ticks)

        Nodes                                         Cuts/
   Node  Left     Objective  IInf  Best Integer    Best Bound    ItCnt     Gap

*     0+    0                          120.0000        0.0000           100.00%
*     0+    0                           83.0000        0.0000           100.00%
*     0+    0                           56.0000        0.0000           100.00%
      0     0       47.1867    98       56.0000       47.1867      485   15.74%
*     0+    0                           51.0000       47.1867             7.48%
      0     0       47.1867   127       51.0000      Cuts: 95      730    7.48%
      0     0       47.1867   145       51.0000     Cuts: 146     1101    7.48%
*     0+    0                           50.0000       47.1867             5.63%
      0     2       47.1867    70       50.0000       47.1867     1101    5.63%
Elapsed time = 1.76 sec. (2630.89 ticks, tree = 0.02 MB, solutions = 5)
    227   197       47.1867    87       50.0000       47.1867     3711    5.63%
    490   403       47.1867    91       50.0000       47.1867     4728    5.63%
    817   765       47.1867    91       50.0000       47.1867     6610    5.63%
   1290  1131       47.1867    76       50.0000       47.1867    11129    5.63%
   2057  1942       47.1867    74       50.0000       47.1867    17718    5.63%
   2770  2552       47.3333    65       50.0000       47.1867    25946    5.63%
   3732  3276       47.1933    76       50.0000       47.1867    31881    5.63%
   4480  4221       48.1200    37       50.0000       47.1867    41165    5.63%

Performing restart 1

Repeating presolve.
Tried aggregator 1 time.
Reduced MIP has 240 rows, 13410 columns, and 28920 nonzeros.
Reduced MIP has 13410 binaries, 0 generals, 0 SOSs, and 0 indicators.
Presolve time = 0.02 sec. (31.64 ticks)
Tried aggregator 1 time.
Reduced MIP has 240 rows, 13410 columns, and 28920 nonzeros.
Reduced MIP has 13410 binaries, 0 generals, 0 SOSs, and 0 indicators.
Presolve time = 0.03 sec. (41.18 ticks)
Represolve time = 0.13 sec. (149.74 ticks)
   4712     0       47.1867   186       50.0000     Cuts: 146    46234    5.63%
   4712     0       47.1867   185       50.0000     Cuts: 109    46850    5.63%
   4712     0       47.1867   156       50.0000     Cuts: 108    47300    5.63%
   4712     0       47.1867   138       50.0000      Cuts: 71    47746    5.63%
Advanced basis not built.
Advanced basis not built.
Advanced basis not built.

GUB cover cuts applied:  30
Clique cuts applied:  8
Cover cuts applied:  47
Implied bound cuts applied:  0
Flow cuts applied:  8
Mixed integer rounding cuts applied:  12
Zero-half cuts applied:  18
Gomory fractional cuts applied:  32

Root node processing (before b&c):
  Real time             =    1.75 sec. (2629.07 ticks)
Parallel b&c, 8 threads:
  Real time             =    3.26 sec. (5548.98 ticks)
  Sync time (average)   =    0.21 sec.
  Wait time (average)   =    0.00 sec.
                          ------------
Total (root+branch&cut) =    5.01 sec. (8178.05 ticks)
Gap: 5.63%
Upper bound: 50
Lower bound: 47.1867
End of CPLEX run. Time: 5.02069 seconds

===== New CPLEX run =====
Instance: /home/yorig/tuner/mpils-tests/instances/miplib/easy/supportcase18.mps
Config: /scratch/yorig/mpils-results-grid-seconds-5-no-mip-start/easy/24proc/seed-1/9_supportcase18_seed-1_20260502_185710/iterated_local_search/run_1_worker_4/ils_config_4598238589271301244.prm
========================

Selected objective sense:  MINIMIZE
Selected objective  name:  OBJ
Selected RHS        name:  RHS1
Selected bound      name:  BND1
Version identifier: 22.1.2.0 | 2024-11-26 | 0edbb82fd
CPXPARAM_Threads                                 8
CPXPARAM_Parallel                                1
CPXPARAM_MIP_Cuts_Cliques                        2
CPXPARAM_MIP_Cuts_Implied                        1
CPXPARAM_MIP_Limits_GomoryCand                   800
CPXPARAM_MIP_Cuts_Gomory                         2
CPXPARAM_MIP_Cuts_PathCut                        -1
CPXPARAM_MIP_Cuts_MIRCut                         2
CPXPARAM_TimeLimit                               5
Tried aggregator 1 time.
Reduced MIP has 240 rows, 13410 columns, and 28920 nonzeros.
Reduced MIP has 13410 binaries, 0 generals, 0 SOSs, and 0 indicators.
Presolve time = 0.02 sec. (31.58 ticks)
Found incumbent of value 120.000000 after 0.06 sec. (75.08 ticks)
Tried aggregator 1 time.
Detecting symmetries...
Reduced MIP has 240 rows, 13410 columns, and 28920 nonzeros.
Reduced MIP has 13410 binaries, 0 generals, 0 SOSs, and 0 indicators.
Presolve time = 0.03 sec. (40.71 ticks)
Probing time = 0.01 sec. (5.64 ticks)
Clique table members: 4542.
MIP emphasis: balance optimality and feasibility.
MIP search method: dynamic search.
Parallel mode: deterministic, using up to 8 threads.
Root relaxation solution time = 0.02 sec. (27.39 ticks)

        Nodes                                         Cuts/
   Node  Left     Objective  IInf  Best Integer    Best Bound    ItCnt     Gap

*     0+    0                          120.0000        0.0000           100.00%
*     0+    0                           83.0000        0.0000           100.00%
*     0+    0                           56.0000        0.0000           100.00%
      0     0       47.1867    98       56.0000       47.1867      485   15.74%
*     0+    0                           51.0000       47.1867             7.48%
      0     0       47.1867   127       51.0000      Cuts: 95      730    7.48%
      0     0       47.1867   145       51.0000     Cuts: 146     1101    7.48%
*     0+    0                           50.0000       47.1867             5.63%
      0     2       47.1867    70       50.0000       47.1867     1101    5.63%
Elapsed time = 1.71 sec. (2630.89 ticks, tree = 0.02 MB, solutions = 5)
    227   197       47.1867    87       50.0000       47.1867     3711    5.63%
    490   403       47.1867    91       50.0000       47.1867     4728    5.63%
    817   765       47.1867    91       50.0000       47.1867     6610    5.63%
   1290  1131       47.1867    76       50.0000       47.1867    11129    5.63%
   2057  1942       47.1867    74       50.0000       47.1867    17718    5.63%
   2770  2552       47.3333    65       50.0000       47.1867    25946    5.63%
   3732  3276       47.1933    76       50.0000       47.1867    31881    5.63%
   4480  4221       48.1200    37       50.0000       47.1867    41165    5.63%

Performing restart 1

Repeating presolve.
Tried aggregator 1 time.
Reduced MIP has 240 rows, 13410 columns, and 28920 nonzeros.
Reduced MIP has 13410 binaries, 0 generals, 0 SOSs, and 0 indicators.
Presolve time = 0.02 sec. (31.64 ticks)
Tried aggregator 1 time.
Reduced MIP has 240 rows, 13410 columns, and 28920 nonzeros.
Reduced MIP has 13410 binaries, 0 generals, 0 SOSs, and 0 indicators.
Presolve time = 0.03 sec. (41.18 ticks)
Represolve time = 0.13 sec. (149.74 ticks)
   4712     0       47.1867   186       50.0000     Cuts: 146    46234    5.63%
   4712     0       47.1867   185       50.0000     Cuts: 109    46850    5.63%
   4712     0       47.1867   156       50.0000     Cuts: 108    47300    5.63%
   4712     0       47.1867   138       50.0000      Cuts: 71    47746    5.63%
Advanced basis not built.
Advanced basis not built.

GUB cover cuts applied:  30
Clique cuts applied:  8
Cover cuts applied:  47
Implied bound cuts applied:  0
Flow cuts applied:  8
Mixed integer rounding cuts applied:  12
Zero-half cuts applied:  18
Gomory fractional cuts applied:  32

Root node processing (before b&c):
  Real time             =    1.70 sec. (2629.07 ticks)
Parallel b&c, 8 threads:
  Real time             =    3.30 sec. (5722.90 ticks)
  Sync time (average)   =    0.21 sec.
  Wait time (average)   =    0.00 sec.
                          ------------
Total (root+branch&cut) =    5.01 sec. (8351.98 ticks)
Gap: 5.63%
Upper bound: 50
Lower bound: 47.1867
End of CPLEX run. Time: 5.01279 seconds

===== New CPLEX run =====
Instance: /home/yorig/tuner/mpils-tests/instances/miplib/easy/supportcase18.mps
Config: /scratch/yorig/mpils-results-grid-seconds-5-no-mip-start/easy/24proc/seed-1/9_supportcase18_seed-1_20260502_185710/iterated_local_search/run_1_worker_4/ils_config_929287535712065411.prm
========================

Selected objective sense:  MINIMIZE
Selected objective  name:  OBJ
Selected RHS        name:  RHS1
Selected bound      name:  BND1
Version identifier: 22.1.2.0 | 2024-11-26 | 0edbb82fd
CPXPARAM_Threads                                 8
CPXPARAM_Parallel                                1
CPXPARAM_MIP_Cuts_Cliques                        2
CPXPARAM_MIP_Cuts_Implied                        1
CPXPARAM_MIP_Limits_GomoryCand                   800
CPXPARAM_MIP_Cuts_PathCut                        -1
CPXPARAM_MIP_Cuts_MIRCut                         1
CPXPARAM_TimeLimit                               5
Tried aggregator 1 time.
Reduced MIP has 240 rows, 13410 columns, and 28920 nonzeros.
Reduced MIP has 13410 binaries, 0 generals, 0 SOSs, and 0 indicators.
Presolve time = 0.02 sec. (31.58 ticks)
Found incumbent of value 120.000000 after 0.06 sec. (75.08 ticks)
Tried aggregator 1 time.
Detecting symmetries...
Reduced MIP has 240 rows, 13410 columns, and 28920 nonzeros.
Reduced MIP has 13410 binaries, 0 generals, 0 SOSs, and 0 indicators.
Presolve time = 0.03 sec. (40.71 ticks)
Probing time = 0.01 sec. (5.64 ticks)
Clique table members: 4542.
MIP emphasis: balance optimality and feasibility.
MIP search method: dynamic search.
Parallel mode: deterministic, using up to 8 threads.
Root relaxation solution time = 0.01 sec. (27.39 ticks)

        Nodes                                         Cuts/
   Node  Left     Objective  IInf  Best Integer    Best Bound    ItCnt     Gap

*     0+    0                          120.0000        0.0000           100.00%
*     0+    0                           83.0000        0.0000           100.00%
*     0+    0                           56.0000        0.0000           100.00%
      0     0       47.1867    98       56.0000       47.1867      485   15.74%
*     0+    0                           51.0000       47.1867             7.48%
      0     0       47.1867   127       51.0000      Cuts: 95      730    7.48%
      0     0       47.1867   156       51.0000     Cuts: 131     1238    7.48%
*     0+    0                           50.0000       47.1867             5.63%
      0     2       47.1867    72       50.0000       47.1867     1238    5.63%
Elapsed time = 1.56 sec. (2284.94 ticks, tree = 0.02 MB, solutions = 5)
    290   234       47.1867    88       50.0000       47.1867     5542    5.63%
    862   676       47.2133    75       50.0000       47.1867     7725    5.63%
   1753  1471       47.2667    70       50.0000       47.1867    12206    5.63%
   2464  2210       47.5733    63       50.0000       47.1867    19172    5.63%
   3372  3022       47.4467    74       50.0000       47.1867    27045    5.63%
   4187  3736       47.6217    77       50.0000       47.1867    36916    5.63%
*  4383+ 1666                           49.0000       47.1867             3.70%

Performing restart 1

Repeating presolve.
Tried aggregator 1 time.
Reduced MIP has 240 rows, 13410 columns, and 28920 nonzeros.
Reduced MIP has 13410 binaries, 0 generals, 0 SOSs, and 0 indicators.
Presolve time = 0.02 sec. (31.64 ticks)
Tried aggregator 1 time.
Reduced MIP has 240 rows, 13410 columns, and 28920 nonzeros.
Reduced MIP has 13410 binaries, 0 generals, 0 SOSs, and 0 indicators.
Presolve time = 0.03 sec. (41.18 ticks)
Represolve time = 0.12 sec. (142.78 ticks)
   4524     0       47.1867   168       49.0000     Cuts: 123    43844    3.70%
   4524     0       47.1867   169       49.0000      Cuts: 91    44344    3.70%
   4524     0       47.1867   155       49.0000     Cuts: 120    44860    3.70%
   4524     0       47.1867   150       49.0000     Cuts: 100    45544    3.70%
   4524     0       47.1867   150       49.0000     Cuts: 104    46027    3.70%
   4524     0       47.1867   171       49.0000     Cuts: 117    46638    3.70%
Advanced basis not built.
Advanced basis not built.

GUB cover cuts applied:  42
Clique cuts applied:  44
Cover cuts applied:  27
Implied bound cuts applied:  0
Flow cuts applied:  11
Mixed integer rounding cuts applied:  11
Zero-half cuts applied:  24
Gomory fractional cuts applied:  31

Root node processing (before b&c):
  Real time             =    1.55 sec. (2283.38 ticks)
Parallel b&c, 8 threads:
  Real time             =    3.46 sec. (6620.60 ticks)
  Sync time (average)   =    0.16 sec.
  Wait time (average)   =    0.00 sec.
                          ------------
Total (root+branch&cut) =    5.01 sec. (8903.98 ticks)
Gap: 3.7%
Upper bound: 49
Lower bound: 47.1867
End of CPLEX run. Time: 5.01302 seconds

===== New CPLEX run =====
Instance: /home/yorig/tuner/mpils-tests/instances/miplib/easy/supportcase18.mps
Config: /scratch/yorig/mpils-results-grid-seconds-5-no-mip-start/easy/24proc/seed-1/9_supportcase18_seed-1_20260502_185710/iterated_local_search/run_1_worker_4/ils_config_13496243846941636209.prm
========================

Selected objective sense:  MINIMIZE
Selected objective  name:  OBJ
Selected RHS        name:  RHS1
Selected bound      name:  BND1
Version identifier: 22.1.2.0 | 2024-11-26 | 0edbb82fd
CPXPARAM_Threads                                 8
CPXPARAM_Parallel                                1
CPXPARAM_MIP_Cuts_Cliques                        2
CPXPARAM_MIP_Cuts_Implied                        1
CPXPARAM_MIP_Limits_GomoryCand                   150
CPXPARAM_MIP_Cuts_PathCut                        -1
CPXPARAM_MIP_Cuts_MIRCut                         1
CPXPARAM_TimeLimit                               5
Tried aggregator 1 time.
Reduced MIP has 240 rows, 13410 columns, and 28920 nonzeros.
Reduced MIP has 13410 binaries, 0 generals, 0 SOSs, and 0 indicators.
Presolve time = 0.02 sec. (31.58 ticks)
Found incumbent of value 120.000000 after 0.06 sec. (75.08 ticks)
Tried aggregator 1 time.
Detecting symmetries...
Reduced MIP has 240 rows, 13410 columns, and 28920 nonzeros.
Reduced MIP has 13410 binaries, 0 generals, 0 SOSs, and 0 indicators.
Presolve time = 0.03 sec. (40.71 ticks)
Probing time = 0.01 sec. (5.64 ticks)
Clique table members: 4542.
MIP emphasis: balance optimality and feasibility.
MIP search method: dynamic search.
Parallel mode: deterministic, using up to 8 threads.
Root relaxation solution time = 0.02 sec. (27.39 ticks)

        Nodes                                         Cuts/
   Node  Left     Objective  IInf  Best Integer    Best Bound    ItCnt     Gap

*     0+    0                          120.0000        0.0000           100.00%
*     0+    0                           83.0000        0.0000           100.00%
*     0+    0                           56.0000        0.0000           100.00%
      0     0       47.1867    98       56.0000       47.1867      485   15.74%
*     0+    0                           51.0000       47.1867             7.48%
      0     0       47.1867   127       51.0000      Cuts: 95      730    7.48%
      0     0       47.1867   156       51.0000     Cuts: 131     1238    7.48%
*     0+    0                           50.0000       47.1867             5.63%
      0     2       47.1867    72       50.0000       47.1867     1238    5.63%
Elapsed time = 1.55 sec. (2284.94 ticks, tree = 0.02 MB, solutions = 5)
    290   234       47.1867    88       50.0000       47.1867     5542    5.63%
    862   676       47.2133    75       50.0000       47.1867     7725    5.63%
   1753  1471       47.2667    70       50.0000       47.1867    12206    5.63%
   2464  2210       47.5733    63       50.0000       47.1867    19172    5.63%
   3372  3022       47.4467    74       50.0000       47.1867    27045    5.63%
   4187  3736       47.6217    77       50.0000       47.1867    36916    5.63%
*  4383+ 1666                           49.0000       47.1867             3.70%

Performing restart 1

Repeating presolve.
Tried aggregator 1 time.
Reduced MIP has 240 rows, 13410 columns, and 28920 nonzeros.
Reduced MIP has 13410 binaries, 0 generals, 0 SOSs, and 0 indicators.
Presolve time = 0.02 sec. (31.64 ticks)
Tried aggregator 1 time.
Reduced MIP has 240 rows, 13410 columns, and 28920 nonzeros.
Reduced MIP has 13410 binaries, 0 generals, 0 SOSs, and 0 indicators.
Presolve time = 0.03 sec. (41.18 ticks)
Represolve time = 0.12 sec. (142.78 ticks)
   4524     0       47.1867   168       49.0000     Cuts: 123    43844    3.70%
   4524     0       47.1867   169       49.0000      Cuts: 91    44344    3.70%
   4524     0       47.1867   155       49.0000     Cuts: 120    44860    3.70%
   4524     0       47.1867   150       49.0000     Cuts: 100    45544    3.70%
   4524     0       47.1867   150       49.0000     Cuts: 104    46027    3.70%
   4524     0       47.1867   171       49.0000     Cuts: 117    46638    3.70%
Advanced basis not built.
Advanced basis not built.
Advanced basis not built.

GUB cover cuts applied:  42
Clique cuts applied:  44
Cover cuts applied:  27
Implied bound cuts applied:  0
Flow cuts applied:  11
Mixed integer rounding cuts applied:  11
Zero-half cuts applied:  24
Gomory fractional cuts applied:  31

Root node processing (before b&c):
  Real time             =    1.54 sec. (2283.38 ticks)
Parallel b&c, 8 threads:
  Real time             =    3.46 sec. (6712.74 ticks)
  Sync time (average)   =    0.16 sec.
  Wait time (average)   =    0.00 sec.
                          ------------
Total (root+branch&cut) =    5.01 sec. (8996.12 ticks)
Gap: 3.7%
Upper bound: 49
Lower bound: 47.1867
End of CPLEX run. Time: 5.01269 seconds

===== New CPLEX run =====
Instance: /home/yorig/tuner/mpils-tests/instances/miplib/easy/supportcase18.mps
Config: /scratch/yorig/mpils-results-grid-seconds-5-no-mip-start/easy/24proc/seed-1/9_supportcase18_seed-1_20260502_185710/iterated_local_search/run_1_worker_4/ils_config_6753040513270814090.prm
========================

Selected objective sense:  MINIMIZE
Selected objective  name:  OBJ
Selected RHS        name:  RHS1
Selected bound      name:  BND1
Version identifier: 22.1.2.0 | 2024-11-26 | 0edbb82fd
CPXPARAM_Threads                                 8
CPXPARAM_Parallel                                1
CPXPARAM_MIP_Cuts_Cliques                        1
CPXPARAM_MIP_Cuts_Implied                        1
CPXPARAM_MIP_Limits_GomoryCand                   800
CPXPARAM_MIP_Cuts_PathCut                        -1
CPXPARAM_MIP_Cuts_MIRCut                         1
CPXPARAM_TimeLimit                               5
Tried aggregator 1 time.
Reduced MIP has 240 rows, 13410 columns, and 28920 nonzeros.
Reduced MIP has 13410 binaries, 0 generals, 0 SOSs, and 0 indicators.
Presolve time = 0.02 sec. (31.58 ticks)
Found incumbent of value 120.000000 after 0.06 sec. (75.08 ticks)
Tried aggregator 1 time.
Detecting symmetries...
Reduced MIP has 240 rows, 13410 columns, and 28920 nonzeros.
Reduced MIP has 13410 binaries, 0 generals, 0 SOSs, and 0 indicators.
Presolve time = 0.03 sec. (40.71 ticks)
Probing time = 0.01 sec. (5.64 ticks)
Clique table members: 4542.
MIP emphasis: balance optimality and feasibility.
MIP search method: dynamic search.
Parallel mode: deterministic, using up to 8 threads.
Root relaxation solution time = 0.02 sec. (27.39 ticks)

        Nodes                                         Cuts/
   Node  Left     Objective  IInf  Best Integer    Best Bound    ItCnt     Gap

*     0+    0                          120.0000        0.0000           100.00%
*     0+    0                           83.0000        0.0000           100.00%
*     0+    0                           56.0000        0.0000           100.00%
      0     0       47.1867    98       56.0000       47.1867      485   15.74%
*     0+    0                           51.0000       47.1867             7.48%
      0     0       47.1867   127       51.0000      Cuts: 95      730    7.48%
      0     0       47.1867   156       51.0000     Cuts: 131     1238    7.48%
*     0+    0                           50.0000       47.1867             5.63%
      0     2       47.1867    72       50.0000       47.1867     1238    5.63%
Elapsed time = 1.56 sec. (2284.94 ticks, tree = 0.02 MB, solutions = 5)
    290   234       47.1867    88       50.0000       47.1867     5542    5.63%
    862   676       47.2133    75       50.0000       47.1867     7725    5.63%
   1753  1471       47.2667    70       50.0000       47.1867    12206    5.63%
   2464  2210       47.5733    63       50.0000       47.1867    19172    5.63%
   3372  3022       47.4467    74       50.0000       47.1867    27045    5.63%
   4187  3736       47.6217    77       50.0000       47.1867    36916    5.63%
*  4383+ 1666                           49.0000       47.1867             3.70%

Performing restart 1

Repeating presolve.
Tried aggregator 1 time.
Reduced MIP has 240 rows, 13410 columns, and 28920 nonzeros.
Reduced MIP has 13410 binaries, 0 generals, 0 SOSs, and 0 indicators.
Presolve time = 0.02 sec. (31.64 ticks)
Tried aggregator 1 time.
Reduced MIP has 240 rows, 13410 columns, and 28920 nonzeros.
Reduced MIP has 13410 binaries, 0 generals, 0 SOSs, and 0 indicators.
Presolve time = 0.03 sec. (41.18 ticks)
Represolve time = 0.12 sec. (142.78 ticks)
   4524     0       47.1867   168       49.0000     Cuts: 123    43844    3.70%
   4524     0       47.1867   169       49.0000      Cuts: 91    44344    3.70%
   4524     0       47.1867   155       49.0000     Cuts: 120    44860    3.70%
   4524     0       47.1867   150       49.0000     Cuts: 100    45544    3.70%
   4524     0       47.1867   150       49.0000     Cuts: 104    46027    3.70%
   4524     0       47.1867   171       49.0000     Cuts: 117    46638    3.70%
Advanced basis not built.
Advanced basis not built.

GUB cover cuts applied:  42
Clique cuts applied:  44
Cover cuts applied:  27
Implied bound cuts applied:  0
Flow cuts applied:  11
Mixed integer rounding cuts applied:  11
Zero-half cuts applied:  24
Gomory fractional cuts applied:  31

Root node processing (before b&c):
  Real time             =    1.55 sec. (2283.38 ticks)
Parallel b&c, 8 threads:
  Real time             =    3.45 sec. (6619.10 ticks)
  Sync time (average)   =    0.16 sec.
  Wait time (average)   =    0.00 sec.
                          ------------
Total (root+branch&cut) =    5.00 sec. (8902.48 ticks)
Gap: 3.7%
Upper bound: 49
Lower bound: 47.1867
End of CPLEX run. Time: 5.01277 seconds

===== New CPLEX run =====
Instance: /home/yorig/tuner/mpils-tests/instances/miplib/easy/supportcase18.mps
Config: /scratch/yorig/mpils-results-grid-seconds-5-no-mip-start/easy/24proc/seed-1/9_supportcase18_seed-1_20260502_185710/iterated_local_search/run_1_worker_4/ils_config_15731328587028107624.prm
========================

Selected objective sense:  MINIMIZE
Selected objective  name:  OBJ
Selected RHS        name:  RHS1
Selected bound      name:  BND1
Version identifier: 22.1.2.0 | 2024-11-26 | 0edbb82fd
CPXPARAM_Threads                                 8
CPXPARAM_Parallel                                1
CPXPARAM_MIP_Cuts_Cliques                        2
CPXPARAM_MIP_Cuts_Implied                        1
CPXPARAM_MIP_Cuts_GUBCovers                      -1
CPXPARAM_MIP_Limits_GomoryCand                   800
CPXPARAM_MIP_Cuts_PathCut                        -1
CPXPARAM_MIP_Cuts_MIRCut                         1
CPXPARAM_TimeLimit                               5
Tried aggregator 1 time.
Reduced MIP has 240 rows, 13410 columns, and 28920 nonzeros.
Reduced MIP has 13410 binaries, 0 generals, 0 SOSs, and 0 indicators.
Presolve time = 0.02 sec. (31.58 ticks)
Found incumbent of value 120.000000 after 0.06 sec. (75.08 ticks)
Tried aggregator 1 time.
Detecting symmetries...
Reduced MIP has 240 rows, 13410 columns, and 28920 nonzeros.
Reduced MIP has 13410 binaries, 0 generals, 0 SOSs, and 0 indicators.
Presolve time = 0.03 sec. (40.71 ticks)
Probing time = 0.01 sec. (5.64 ticks)
Clique table members: 4542.
MIP emphasis: balance optimality and feasibility.
MIP search method: dynamic search.
Parallel mode: deterministic, using up to 8 threads.
Root relaxation solution time = 0.02 sec. (27.39 ticks)

        Nodes                                         Cuts/
   Node  Left     Objective  IInf  Best Integer    Best Bound    ItCnt     Gap

*     0+    0                          120.0000        0.0000           100.00%
*     0+    0                           83.0000        0.0000           100.00%
*     0+    0                           56.0000        0.0000           100.00%
      0     0       47.1867    98       56.0000       47.1867      485   15.74%
*     0+    0                           51.0000       47.1867             7.48%
      0     0       47.1867   129       51.0000      Cuts: 97      785    7.48%
      0     0       47.1867   154       51.0000     Cuts: 160     1332    7.48%
*     0+    0                           50.0000       47.1867             5.63%
      0     2       47.1867    75       50.0000       47.1867     1332    5.63%
Elapsed time = 1.69 sec. (2515.47 ticks, tree = 0.02 MB, solutions = 5)
    278   203       47.3000    91       50.0000       47.1867     5552    5.63%
    777   669       47.3000    84       50.0000       47.1867     8950    5.63%
   1573  1386       47.1867    82       50.0000       47.1867    13462    5.63%
   2374  2119       47.3267    79       50.0000       47.1867    19724    5.63%
   3307  3007       47.1867    74       50.0000       47.1867    27380    5.63%
   4151  3781       47.1867    68       50.0000       47.1867    35889    5.63%

Performing restart 1

Repeating presolve.
Tried aggregator 1 time.
Reduced MIP has 240 rows, 13410 columns, and 28920 nonzeros.
Reduced MIP has 13410 binaries, 0 generals, 0 SOSs, and 0 indicators.
Presolve time = 0.02 sec. (31.64 ticks)
Tried aggregator 1 time.
Reduced MIP has 240 rows, 13410 columns, and 28920 nonzeros.
Reduced MIP has 13410 binaries, 0 generals, 0 SOSs, and 0 indicators.
Presolve time = 0.03 sec. (41.18 ticks)
Represolve time = 0.12 sec. (142.89 ticks)
   4617     0       47.1867   159       50.0000     Cuts: 118    44116    5.63%
   4617     0       47.1867   165       50.0000     Cuts: 103    44767    5.63%
   4617     0       47.1867   145       50.0000      Cuts: 98    45295    5.63%
   4617     0       47.1867   149       50.0000     Cuts: 100    45933    5.63%
   4617     0       47.1867   150       50.0000     Cuts: 104    46401    5.63%
Advanced basis not built.
Advanced basis not built.

Clique cuts applied:  44
Cover cuts applied:  73
Implied bound cuts applied:  0
Flow cuts applied:  6
Mixed integer rounding cuts applied:  12
Zero-half cuts applied:  37
Gomory fractional cuts applied:  35

Root node processing (before b&c):
  Real time             =    1.68 sec. (2513.86 ticks)
Parallel b&c, 8 threads:
  Real time             =    3.33 sec. (6300.95 ticks)
  Sync time (average)   =    0.18 sec.
  Wait time (average)   =    0.00 sec.
                          ------------
Total (root+branch&cut) =    5.01 sec. (8814.81 ticks)
Gap: 5.63%
Upper bound: 50
Lower bound: 47.1867
End of CPLEX run. Time: 5.01497 seconds

===== New CPLEX run =====
Instance: /home/yorig/tuner/mpils-tests/instances/miplib/easy/supportcase18.mps
Config: /scratch/yorig/mpils-results-grid-seconds-5-no-mip-start/easy/24proc/seed-1/9_supportcase18_seed-1_20260502_185710/iterated_local_search/run_1_worker_4/ils_config_5683004477497884017.prm
========================

Selected objective sense:  MINIMIZE
Selected objective  name:  OBJ
Selected RHS        name:  RHS1
Selected bound      name:  BND1
Version identifier: 22.1.2.0 | 2024-11-26 | 0edbb82fd
CPXPARAM_Threads                                 8
CPXPARAM_Parallel                                1
CPXPARAM_MIP_Cuts_Cliques                        2
CPXPARAM_MIP_Cuts_Implied                        1
CPXPARAM_MIP_Limits_GomoryCand                   800
CPXPARAM_MIP_Cuts_Gomory                         -1
CPXPARAM_MIP_Cuts_PathCut                        -1
CPXPARAM_MIP_Cuts_MIRCut                         1
CPXPARAM_TimeLimit                               5
Tried aggregator 1 time.
Reduced MIP has 240 rows, 13410 columns, and 28920 nonzeros.
Reduced MIP has 13410 binaries, 0 generals, 0 SOSs, and 0 indicators.
Presolve time = 0.02 sec. (31.58 ticks)
Found incumbent of value 120.000000 after 0.06 sec. (75.08 ticks)
Tried aggregator 1 time.
Detecting symmetries...
Reduced MIP has 240 rows, 13410 columns, and 28920 nonzeros.
Reduced MIP has 13410 binaries, 0 generals, 0 SOSs, and 0 indicators.
Presolve time = 0.03 sec. (40.71 ticks)
Probing time = 0.01 sec. (5.64 ticks)
Clique table members: 4542.
MIP emphasis: balance optimality and feasibility.
MIP search method: dynamic search.
Parallel mode: deterministic, using up to 8 threads.
Root relaxation solution time = 0.02 sec. (27.39 ticks)

        Nodes                                         Cuts/
   Node  Left     Objective  IInf  Best Integer    Best Bound    ItCnt     Gap

*     0+    0                          120.0000        0.0000           100.00%
*     0+    0                           83.0000        0.0000           100.00%
*     0+    0                           56.0000        0.0000           100.00%
      0     0       47.1867    98       56.0000       47.1867      485   15.74%
*     0+    0                           51.0000       47.1867             7.48%
      0     0       47.1867   129       51.0000      Cuts: 72      796    7.48%
      0     0       47.1867   147       51.0000     Cuts: 136     1180    7.48%
*     0+    0                           50.0000       47.1867             5.63%
      0     2       47.1867    77       50.0000       47.1867     1180    5.63%
Elapsed time = 1.29 sec. (1803.86 ticks, tree = 0.02 MB, solutions = 5)
    269   201       47.1867    95       50.0000       47.1867     5906    5.63%
    905   714       47.1867    87       50.0000       47.1867     9152    5.63%
   1608  1501       47.2333    83       50.0000       47.1867    14603    5.63%
   2334  2093       47.2267    80       50.0000       47.1867    21833    5.63%
   3229  3086       47.2533    84       50.0000       47.1867    30505    5.63%
   4026  3764       47.1867    75       50.0000       47.1867    40508    5.63%
*  4728+ 1634                           49.0000       47.1867             3.70%
   4739  4451       47.1867    74       49.0000       47.1867    50283    3.70%

Performing restart 1

Repeating presolve.
Tried aggregator 1 time.
Reduced MIP has 240 rows, 13410 columns, and 28920 nonzeros.
Reduced MIP has 13410 binaries, 0 generals, 0 SOSs, and 0 indicators.
Presolve time = 0.02 sec. (31.64 ticks)
Tried aggregator 1 time.
Reduced MIP has 240 rows, 13410 columns, and 28920 nonzeros.
Reduced MIP has 13410 binaries, 0 generals, 0 SOSs, and 0 indicators.
Presolve time = 0.03 sec. (41.18 ticks)
Represolve time = 0.10 sec. (130.46 ticks)
   4908     0       47.1867   118       49.0000     Cuts: 117    55055    3.70%
   4908     0       47.1867   121       49.0000      Cuts: 58    55477    3.70%
   4908     0       47.1867   130       49.0000      Cuts: 78    55955    3.70%
   4908     0       47.1867   121       49.0000      Cuts: 49    56535    3.70%
   4908     0       47.1867   142       49.0000      Cuts: 73    56997    3.70%
   4908     2       47.1867    88       49.0000       47.1867    56997    3.70%
   4928    22       47.3533    79       49.0000       47.1867    57242    3.70%

GUB cover cuts applied:  7
Clique cuts applied:  1
Cover cuts applied:  16
Implied bound cuts applied:  0
Flow cuts applied:  8
Mixed integer rounding cuts applied:  3
Zero-half cuts applied:  3

Root node processing (before b&c):
  Real time             =    1.28 sec. (1802.32 ticks)
Parallel b&c, 8 threads:
  Real time             =    3.73 sec. (6634.70 ticks)
  Sync time (average)   =    0.31 sec.
  Wait time (average)   =    0.00 sec.
                          ------------
Total (root+branch&cut) =    5.01 sec. (8437.01 ticks)
Gap: 3.7%
Upper bound: 49
Lower bound: 47.1867
End of CPLEX run. Time: 5.00962 seconds

===== New CPLEX run =====
Instance: /home/yorig/tuner/mpils-tests/instances/miplib/easy/supportcase18.mps
Config: /scratch/yorig/mpils-results-grid-seconds-5-no-mip-start/easy/24proc/seed-1/9_supportcase18_seed-1_20260502_185710/iterated_local_search/run_1_worker_4/ils_config_3713757457744249511.prm
========================

Selected objective sense:  MINIMIZE
Selected objective  name:  OBJ
Selected RHS        name:  RHS1
Selected bound      name:  BND1
Version identifier: 22.1.2.0 | 2024-11-26 | 0edbb82fd
CPXPARAM_Threads                                 8
CPXPARAM_Parallel                                1
CPXPARAM_MIP_Cuts_Cliques                        2
CPXPARAM_MIP_Cuts_Implied                        1
CPXPARAM_MIP_Limits_GomoryCand                   800
CPXPARAM_MIP_Cuts_PathCut                        -1
CPXPARAM_TimeLimit                               5
Tried aggregator 1 time.
Reduced MIP has 240 rows, 13410 columns, and 28920 nonzeros.
Reduced MIP has 13410 binaries, 0 generals, 0 SOSs, and 0 indicators.
Presolve time = 0.02 sec. (31.58 ticks)
Found incumbent of value 120.000000 after 0.06 sec. (75.08 ticks)
Tried aggregator 1 time.
Detecting symmetries...
Reduced MIP has 240 rows, 13410 columns, and 28920 nonzeros.
Reduced MIP has 13410 binaries, 0 generals, 0 SOSs, and 0 indicators.
Presolve time = 0.03 sec. (40.71 ticks)
Probing time = 0.01 sec. (5.64 ticks)
Clique table members: 4542.
MIP emphasis: balance optimality and feasibility.
MIP search method: dynamic search.
Parallel mode: deterministic, using up to 8 threads.
Root relaxation solution time = 0.02 sec. (27.39 ticks)

        Nodes                                         Cuts/
   Node  Left     Objective  IInf  Best Integer    Best Bound    ItCnt     Gap

*     0+    0                          120.0000        0.0000           100.00%
*     0+    0                           83.0000        0.0000           100.00%
*     0+    0                           56.0000        0.0000           100.00%
      0     0       47.1867    98       56.0000       47.1867      485   15.74%
*     0+    0                           51.0000       47.1867             7.48%
      0     0       47.1867   122       51.0000      Cuts: 91      727    7.48%
      0     0       47.1867   135       51.0000     Cuts: 121     1107    7.48%
*     0+    0                           50.0000       47.1867             5.63%
      0     2       47.1867    71       50.0000       47.1867     1107    5.63%
Elapsed time = 1.49 sec. (2160.46 ticks, tree = 0.02 MB, solutions = 5)
    247   190       47.1867    95       50.0000       47.1867     5796    5.63%
    860   732       47.1867    88       50.0000       47.1867     9476    5.63%
   1594  1435       47.1933    96       50.0000       47.1867    15358    5.63%
   2179  2068       47.2067    99       50.0000       47.1867    22340    5.63%
   2945  2779       47.1867    85       50.0000       47.1867    31200    5.63%
   3711  3420       47.1933    73       50.0000       47.1867    38269    5.63%

Performing restart 1

Repeating presolve.
Tried aggregator 1 time.
Reduced MIP has 240 rows, 13410 columns, and 28920 nonzeros.
Reduced MIP has 13410 binaries, 0 generals, 0 SOSs, and 0 indicators.
Presolve time = 0.02 sec. (31.64 ticks)
Tried aggregator 1 time.
Reduced MIP has 240 rows, 13410 columns, and 28920 nonzeros.
Reduced MIP has 13410 binaries, 0 generals, 0 SOSs, and 0 indicators.
Presolve time = 0.03 sec. (41.18 ticks)
Represolve time = 0.12 sec. (140.95 ticks)
